NAME : (null)
COMMENT : (null)
TYPE : CVRP
DIMENSION : 22
EDGE_WEIGHT_TYPE : EUC_2D
CAPACITY : 62
NODE_COORD_SECTION
 1   3   3
 2   5  15
 3   4   0
 4  14   4
 5   1   3
 6   8   7
 7  18  16
 8   3   0
 9  18  19
10   9  12
11  17   2
12   9   1
13  19   4
14  14   2
15  12   6
16   8   8
17   0   9
18   7   6
19  12   0
20   7   5
21  12   8
22  12   3
DEMAND_SECTION
 1   0
 2  18
 3   2
 4   5
 5  22
 6  23
 7  23
 8  23
 9  24
10  12
11  16
12   6
13  17
14  22
15  10
16  11
17  11
18  14
19  22
20  16
21   1
22  11
DEPOT_SECTION
 1
-1
EOF